<?xml version = "1.0" standalone="yes"?>
<!-- This file has been generated by DOcplex version 2.23.222  -->
<CPLEXSolution version="1.0">
 <header
   problemName="CVRP"
   objectiveValue="9548.93"
  />
 <variables>
  <variable name="x_0_1" index="0" value="1.00000"/>
  <variable name="x_0_2" index="1" value="1.00000"/>
  <variable name="x_0_3" index="2" value="1.00000"/>
  <variable name="x_0_4" index="3" value="1.00000"/>
  <variable name="x_0_7" index="6" value="1.00000"/>
  <variable name="x_0_8" index="7" value="1.00000"/>
  <variable name="x_0_10" index="9" value="1.00000"/>
  <variable name="x_0_13" index="12" value="1.00000"/>
  <variable name="x_0_14" index="13" value="1.00000"/>
  <variable name="x_1_0" index="14" value="1.00000"/>
  <variable name="x_2_0" index="28" value="1.00000"/>
  <variable name="x_3_0" index="42" value="1.00000"/>
  <variable name="x_4_0" index="56" value="1.00000"/>
  <variable name="x_5_9" index="78" value="1.00000"/>
  <variable name="x_6_0" index="84" value="1.00000"/>
  <variable name="x_7_11" index="108" value="1.00000"/>
  <variable name="x_8_12" index="123" value="1.00000"/>
  <variable name="x_9_0" index="126" value="1.00000"/>
  <variable name="x_10_0" index="140" value="1.00000"/>
  <variable name="x_11_6" index="160" value="1.00000"/>
  <variable name="x_12_0" index="168" value="1.00000"/>
  <variable name="x_13_0" index="182" value="1.00000"/>
  <variable name="x_14_5" index="201" value="1.00000"/>
  <variable name="u_1" index="210" value="28.00000"/>
  <variable name="u_2" index="211" value="42.00000"/>
  <variable name="u_3" index="212" value="28.00000"/>
  <variable name="u_4" index="213" value="46.00000"/>
  <variable name="u_5" index="214" value="29.00000"/>
  <variable name="u_6" index="215" value="44.00000"/>
  <variable name="u_7" index="216" value="35.00000"/>
  <variable name="u_8" index="217" value="18.00000"/>
  <variable name="u_9" index="218" value="45.00000"/>
  <variable name="u_10" index="219" value="45.00000"/>
  <variable name="u_11" index="220" value="40.00000"/>
  <variable name="u_12" index="221" value="44.00000"/>
  <variable name="u_13" index="222" value="46.00000"/>
  <variable name="u_14" index="223" value="15.00000"/>
 </variables>
</CPLEXSolution>
